p edge 100 489
e 1 5
e 1 6
e 1 16
e 1 27
e 1 35
e 1 43
e 1 51
e 1 54
e 1 68
e 1 81
e 1 82
e 1 95
e 1 97
e 2 6
e 2 7
e 2 11
e 2 12
e 2 19
e 2 28
e 2 51
e 2 61
e 2 62
e 2 91
e 2 95
e 3 19
e 3 24
e 3 31
e 3 33
e 3 40
e 3 48
e 3 69
e 3 70
e 3 76
e 3 82
e 3 87
e 3 88
e 3 92
e 4 18
e 4 22
e 4 34
e 4 36
e 4 61
e 4 62
e 4 65
e 4 80
e 4 99
e 5 18
e 5 23
e 5 39
e 5 57
e 5 70
e 5 82
e 5 91
e 6 9
e 6 12
e 6 16
e 6 52
e 6 54
e 6 76
e 6 88
e 6 100
e 7 15
e 7 20
e 7 25
e 7 29
e 7 39
e 7 40
e 7 72
e 7 81
e 7 83
e 7 94
e 7 96
e 7 100
e 8 15
e 8 22
e 8 29
e 8 35
e 8 47
e 8 57
e 8 62
e 8 80
e 8 83
e 8 84
e 9 14
e 9 17
e 9 23
e 9 27
e 9 29
e 9 37
e 9 48
e 9 59
e 9 65
e 9 67
e 9 70
e 9 74
e 9 77
e 10 11
e 10 14
e 10 18
e 10 20
e 10 26
e 10 46
e 10 47
e 10 53
e 10 54
e 10 59
e 10 100
e 11 13
e 11 19
e 11 21
e 11 27
e 11 41
e 11 76
e 11 90
e 11 94
e 12 26
e 12 31
e 12 35
e 12 43
e 12 53
e 12 61
e 12 65
e 12 84
e 12 85
e 12 92
e 13 22
e 13 26
e 13 36
e 13 37
e 13 38
e 13 41
e 13 49
e 13 53
e 13 67
e 13 100
e 14 47
e 14 66
e 14 69
e 14 81
e 14 90
e 14 92
e 15 21
e 15 28
e 15 54
e 15 88
e 15 92
e 16 30
e 16 34
e 16 42
e 16 60
e 16 97
e 17 34
e 17 36
e 17 37
e 17 44
e 17 45
e 17 60
e 17 77
e 17 78
e 17 80
e 17 89
e 17 90
e 18 25
e 18 28
e 18 40
e 18 65
e 18 74
e 18 78
e 19 41
e 19 54
e 19 67
e 19 68
e 19 74
e 19 76
e 19 83
e 20 29
e 20 55
e 20 63
e 20 70
e 20 72
e 20 85
e 21 25
e 21 30
e 21 33
e 21 39
e 21 49
e 21 50
e 21 62
e 21 77
e 21 84
e 21 89
e 21 95
e 22 26
e 22 37
e 22 42
e 22 43
e 22 45
e 22 49
e 22 57
e 22 63
e 22 66
e 22 77
e 22 78
e 22 83
e 23 48
e 24 48
e 24 57
e 24 71
e 24 76
e 24 81
e 24 91
e 25 43
e 25 45
e 25 47
e 25 53
e 25 60
e 25 64
e 25 67
e 25 73
e 25 96
e 26 28
e 26 39
e 26 78
e 26 94
e 27 35
e 27 39
e 27 42
e 27 44
e 27 53
e 27 58
e 27 61
e 27 80
e 27 97
e 28 33
e 28 38
e 28 42
e 28 68
e 28 70
e 28 84
e 28 85
e 28 89
e 29 41
e 29 53
e 29 60
e 29 63
e 29 64
e 29 65
e 29 71
e 29 75
e 29 76
e 29 82
e 29 83
e 29 97
e 29 98
e 30 57
e 30 64
e 30 71
e 30 86
e 30 98
e 31 46
e 31 54
e 31 66
e 32 33
e 32 34
e 32 61
e 32 71
e 32 75
e 32 77
e 33 47
e 33 70
e 33 91
e 33 92
e 33 99
e 34 40
e 34 49
e 34 53
e 34 61
e 34 63
e 34 84
e 35 53
e 35 55
e 35 58
e 35 88
e 35 94
e 36 38
e 36 67
e 36 69
e 36 79
e 36 98
e 37 40
e 37 58
e 37 75
e 37 81
e 38 55
e 38 57
e 38 75
e 38 77
e 38 78
e 38 79
e 38 82
e 38 83
e 38 89
e 38 94
e 39 45
e 39 48
e 39 81
e 39 85
e 40 46
e 40 50
e 40 65
e 40 72
e 40 79
e 40 90
e 40 91
e 40 92
e 40 93
e 41 44
e 41 88
e 42 56
e 42 72
e 42 76
e 42 79
e 42 90
e 42 96
e 43 70
e 43 73
e 43 76
e 43 78
e 43 84
e 43 92
e 43 93
e 43 99
e 44 45
e 44 57
e 44 61
e 44 80
e 44 89
e 45 63
e 45 91
e 45 92
e 46 56
e 46 60
e 46 74
e 46 76
e 46 78
e 46 80
e 46 83
e 46 91
e 46 97
e 46 98
e 46 100
e 47 51
e 47 57
e 47 69
e 47 89
e 48 57
e 48 61
e 48 68
e 48 79
e 48 96
e 48 100
e 49 50
e 49 56
e 50 57
e 50 68
e 50 78
e 51 60
e 51 72
e 51 75
e 51 76
e 51 78
e 51 98
e 51 100
e 52 55
e 52 68
e 52 70
e 52 73
e 52 100
e 53 55
e 53 70
e 53 72
e 53 91
e 53 96
e 53 100
e 54 74
e 54 98
e 55 56
e 55 82
e 55 85
e 55 89
e 55 93
e 55 94
e 55 95
e 55 96
e 55 98
e 56 59
e 56 64
e 56 71
e 56 94
e 57 65
e 57 87
e 57 90
e 57 98
e 58 59
e 58 76
e 58 79
e 58 85
e 59 62
e 59 69
e 59 79
e 59 81
e 59 97
e 60 66
e 60 85
e 60 87
e 60 92
e 60 99
e 61 64
e 61 74
e 61 82
e 61 87
e 61 95
e 62 68
e 63 66
e 63 76
e 63 78
e 63 79
e 64 89
e 65 66
e 65 73
e 65 75
e 65 82
e 65 90
e 65 91
e 66 69
e 66 74
e 66 83
e 66 88
e 66 89
e 66 93
e 67 73
e 67 78
e 67 80
e 67 95
e 68 84
e 68 85
e 68 87
e 68 90
e 69 76
e 69 79
e 70 98
e 71 79
e 71 88
e 72 81
e 72 82
e 72 86
e 72 100
e 73 93
e 73 96
e 75 81
e 75 92
e 75 99
e 76 82
e 76 89
e 76 96
e 76 99
e 77 93
e 78 100
e 79 91
e 79 98
e 80 93
e 80 98
e 82 89
e 83 95
e 84 91
e 84 95
e 84 99
e 86 90
e 86 100
e 87 89
e 87 96
e 88 93
e 88 95
e 88 100
e 90 100
e 92 96
e 93 94
e 94 97
e 96 97
